(set-info :source |printed by MathSAT|)
(declare-fun |.x{222}| () Int)
(declare-fun |.y{17}| () Int)
(declare-fun |.y{13}| () Int)
(declare-fun |.y{18}| () Int)
(declare-fun |.y{14}| () Int)
(declare-fun |.y{19}| () Int)
(declare-fun |.x{223}| () (Array Int Int))
(declare-fun |.y{20}| () (Array Int Int))
(declare-fun |.x{226}| () Int)
(declare-fun |.y{21}| () Int)
(declare-fun |.x{227}| () (Array Int Int))
(declare-fun |.y{22}| () (Array Int Int))
(declare-fun |.x{217}| () Int)
(declare-fun |.y{23}| () Int)
(declare-fun |.y{15}| () Int)
(declare-fun |.y{24}| () Int)
(declare-fun |.x{218}| () (Array Int Int))
(declare-fun |.y{25}| () (Array Int Int))
(declare-fun |.x{219}| () Int)
(declare-fun |.y{26}| () Int)
(declare-fun |.y{16}| () (Array Int Int))
(declare-fun |.y{27}| () (Array Int Int))
(declare-fun |.x{225}| () Int)
(declare-fun |.y{28}| () Int)
(declare-fun |.loc{4}| () Bool)
(declare-fun |.loc{7}| () Bool)
(declare-fun |.loc{5}| () Bool)
(declare-fun |.loc{8}| () Bool)
(declare-fun |.loc{6}| () Bool)
(declare-fun |.loc{9}| () Bool)
(declare-fun |.x{44}| () Int)
(declare-fun |.x{228}| () Int)
(declare-fun |.x{224}| () Int)
(declare-fun |.x{101}| () Int)
(define-fun .def_32 () Bool (! |.loc{4}| :next |.loc{7}|))
(define-fun .def_110 () Bool (not .def_32))
(define-fun .def_34 () Bool (! |.loc{5}| :next |.loc{8}|))
(define-fun .def_73 () Bool (not .def_34))
(define-fun .def_350 () Bool (and .def_73 .def_110))
(define-fun .def_36 () Bool (! |.loc{6}| :next |.loc{9}|))
(define-fun .def_89 () Bool (not .def_36))
(define-fun .def_351 () Bool (! (and .def_89 .def_350) :init true))
(define-fun .def_18 () (Array Int Int) (! |.x{227}| :next |.y{22}|))
(define-fun .def_163 () Int (select .def_18 |.x{228}|))
(define-fun .def_14 () (Array Int Int) (! |.x{223}| :next |.y{20}|))
(define-fun .def_154 () Int (select .def_14 |.x{224}|))
(define-fun .def_164 () Bool (= .def_154 .def_163))
(define-fun .def_332 () Bool (not .def_164))
(define-fun .def_8 () Int (! |.x{222}| :next |.y{17}|))
(define-fun .def_160 () Bool (<= .def_8 0))
(define-fun .def_172 () Bool (not .def_160))
(define-fun .def_333 () Bool (and .def_172 .def_332))
(define-fun .def_16 () Int (! |.x{226}| :next |.y{21}|))
(define-fun .def_97 () Bool (<= .def_16 0))
(define-fun .def_95 () Bool (<= |.x{228}| 0))
(define-fun .def_96 () Bool (not .def_95))
(define-fun .def_98 () Bool (or .def_96 .def_97))
(define-fun .def_334 () Bool (and .def_98 .def_333))
(define-fun .def_102 () Bool (not .def_97))
(define-fun .def_335 () Bool (and .def_102 .def_334))
(define-fun .def_139 () Int (* (- 1) |.x{224}|))
(define-fun .def_30 () Int (! |.x{225}| :next |.y{28}|))
(define-fun .def_258 () Int (+ .def_30 .def_139))
(define-fun .def_259 () Int (+ .def_8 .def_258))
(define-fun .def_260 () Bool (= .def_259 0))
(define-fun .def_325 () Bool (and .def_89 .def_260))
(define-fun .def_77 () Int (* (- 1) |.x{228}|))
(define-fun .def_268 () Int (+ .def_30 .def_77))
(define-fun .def_269 () Int (+ .def_16 .def_268))
(define-fun .def_270 () Bool (= .def_269 0))
(define-fun .def_326 () Bool (and .def_270 .def_325))
(define-fun .def_26 () Int (! |.x{219}| :next |.y{26}|))
(define-fun .def_240 () Bool (<= .def_26 .def_30))
(define-fun .def_277 () Bool (not .def_240))
(define-fun .def_327 () Bool (and .def_277 .def_326))
(define-fun .def_328 () Bool (and .def_277 .def_327))
(define-fun .def_329 () Bool (and .def_32 .def_328))
(define-fun .def_330 () Bool (and .def_34 .def_329))
(define-fun .def_320 () Bool (and .def_36 .def_73))
(define-fun .def_321 () Bool (and .def_110 .def_320))
(define-fun .def_20 () Int (! |.x{217}| :next |.y{23}|))
(define-fun .def_22 () Int (! |.y{15}| :next |.y{24}|))
(define-fun .def_225 () Bool (<= .def_22 .def_20))
(define-fun .def_226 () Bool (not .def_225))
(define-fun .def_322 () Bool (and .def_226 .def_321))
(define-fun .def_142 () Int (+ .def_20 .def_139))
(define-fun .def_143 () Int (+ .def_8 .def_142))
(define-fun .def_144 () Bool (= .def_143 0))
(define-fun .def_323 () Bool (and .def_144 .def_322))
(define-fun .def_147 () Int (+ .def_20 .def_77))
(define-fun .def_148 () Int (+ .def_16 .def_147))
(define-fun .def_149 () Bool (= .def_148 0))
(define-fun .def_324 () Bool (and .def_149 .def_323))
(define-fun .def_331 () Bool (or .def_324 .def_330))
(define-fun .def_336 () Bool (and .def_331 .def_335))
(define-fun .def_337 () Bool (and |.loc{9}| .def_336))
(define-fun .def_66 () Bool (not |.loc{8}|))
(define-fun .def_338 () Bool (and .def_66 .def_337))
(define-fun .def_158 () Bool (<= |.x{224}| 0))
(define-fun .def_159 () Bool (not .def_158))
(define-fun .def_161 () Bool (or .def_159 .def_160))
(define-fun .def_339 () Bool (and .def_161 .def_338))
(define-fun .def_295 () Bool (= .def_22 0))
(define-fun .def_314 () Bool (not .def_295))
(define-fun .def_312 () Bool (= |.y{28}| 0))
(define-fun .def_308 () Bool (= |.y{26}| .def_30))
(define-fun .def_28 () (Array Int Int) (! |.y{16}| :next |.y{27}|))
(define-fun .def_306 () Bool (= |.y{25}| .def_28))
(define-fun .def_303 () Bool (= |.y{23}| .def_26))
(define-fun .def_100 () Bool (= .def_16 |.y{21}|))
(define-fun .def_301 () Bool (and .def_89 .def_100))
(define-fun .def_193 () Bool (= .def_18 |.y{22}|))
(define-fun .def_302 () Bool (and .def_193 .def_301))
(define-fun .def_304 () Bool (and .def_302 .def_303))
(define-fun .def_305 () Bool (and .def_110 .def_304))
(define-fun .def_307 () Bool (and .def_305 .def_306))
(define-fun .def_309 () Bool (and .def_307 .def_308))
(define-fun .def_86 () Bool (not |.loc{9}|))
(define-fun .def_310 () Bool (and .def_86 .def_309))
(define-fun .def_311 () Bool (and |.loc{8}| .def_310))
(define-fun .def_313 () Bool (and .def_311 .def_312))
(define-fun .def_315 () Bool (and .def_313 .def_314))
(define-fun .def_168 () Bool (<= .def_30 .def_20))
(define-fun .def_316 () Bool (and .def_168 .def_315))
(define-fun .def_91 () Bool (= .def_8 |.y{17}|))
(define-fun .def_317 () Bool (and .def_91 .def_316))
(define-fun .def_318 () Bool (and .def_34 .def_317))
(define-fun .def_180 () Bool (= .def_14 |.y{20}|))
(define-fun .def_319 () Bool (and .def_180 .def_318))
(define-fun .def_340 () Bool (or .def_319 .def_339))
(define-fun .def_341 () Bool (and |.loc{7}| .def_340))
(define-fun .def_291 () Bool (= |.y{24}| .def_30))
(define-fun .def_289 () Bool (= |.y{22}| .def_28))
(define-fun .def_287 () Bool (= |.y{21}| .def_26))
(define-fun .def_151 () Bool (not |.loc{7}|))
(define-fun .def_238 () Bool (and .def_89 .def_151))
(define-fun .def_200 () Bool (= |.y{23}| 0))
(define-fun .def_239 () Bool (and .def_200 .def_238))
(define-fun .def_286 () Bool (and .def_110 .def_239))
(define-fun .def_288 () Bool (and .def_286 .def_287))
(define-fun .def_290 () Bool (and .def_288 .def_289))
(define-fun .def_292 () Bool (and .def_290 .def_291))
(define-fun .def_293 () Bool (and |.loc{9}| .def_292))
(define-fun .def_294 () Bool (and .def_66 .def_293))
(define-fun .def_296 () Bool (and .def_294 .def_295))
(define-fun .def_297 () Bool (and .def_168 .def_296))
(define-fun .def_298 () Bool (and .def_91 .def_297))
(define-fun .def_299 () Bool (and .def_34 .def_298))
(define-fun .def_300 () Bool (and .def_180 .def_299))
(define-fun .def_342 () Bool (or .def_300 .def_341))
(define-fun .def_263 () Int (* (- 1) |.y{28}|))
(define-fun .def_264 () Int (+ .def_30 .def_263))
(define-fun .def_265 () Bool (= .def_264 (- 1)))
(define-fun .def_254 () Bool (and .def_100 .def_172))
(define-fun .def_255 () Bool (and .def_89 .def_254))
(define-fun .def_256 () Bool (and .def_193 .def_255))
(define-fun .def_257 () Bool (and .def_98 .def_256))
(define-fun .def_261 () Bool (and .def_257 .def_260))
(define-fun .def_262 () Bool (and .def_102 .def_261))
(define-fun .def_266 () Bool (and .def_262 .def_265))
(define-fun .def_271 () Bool (and .def_266 .def_270))
(define-fun .def_272 () Bool (and .def_86 .def_271))
(define-fun .def_42 () Bool (= .def_20 |.y{23}|))
(define-fun .def_273 () Bool (and .def_42 .def_272))
(define-fun .def_274 () Bool (and |.loc{7}| .def_273))
(define-fun .def_275 () Bool (and |.loc{8}| .def_274))
(define-fun .def_24 () (Array Int Int) (! |.x{218}| :next |.y{25}|))
(define-fun .def_49 () Bool (= .def_24 |.y{25}|))
(define-fun .def_276 () Bool (and .def_49 .def_275))
(define-fun .def_278 () Bool (and .def_276 .def_277))
(define-fun .def_133 () Bool (= .def_26 |.y{26}|))
(define-fun .def_279 () Bool (and .def_133 .def_278))
(define-fun .def_280 () Bool (and .def_91 .def_279))
(define-fun .def_281 () Bool (and .def_32 .def_280))
(define-fun .def_282 () Bool (and .def_161 .def_281))
(define-fun .def_283 () Bool (and .def_34 .def_282))
(define-fun .def_284 () Bool (and .def_180 .def_283))
(define-fun .def_285 () Bool (and .def_164 .def_284))
(define-fun .def_343 () Bool (or .def_285 .def_342))
(define-fun .def_248 () Bool (= |.y{24}| .def_26))
(define-fun .def_246 () Bool (= |.y{22}| .def_24))
(define-fun .def_242 () Bool (= |.y{21}| .def_20))
(define-fun .def_241 () Bool (and .def_239 .def_240))
(define-fun .def_243 () Bool (and .def_241 .def_242))
(define-fun .def_244 () Bool (and |.loc{9}| .def_243))
(define-fun .def_245 () Bool (and .def_66 .def_244))
(define-fun .def_247 () Bool (and .def_245 .def_246))
(define-fun .def_249 () Bool (and .def_247 .def_248))
(define-fun .def_250 () Bool (and .def_91 .def_249))
(define-fun .def_251 () Bool (and .def_32 .def_250))
(define-fun .def_252 () Bool (and .def_34 .def_251))
(define-fun .def_253 () Bool (and .def_180 .def_252))
(define-fun .def_344 () Bool (or .def_253 .def_343))
(define-fun .def_217 () Bool (and .def_36 .def_172))
(define-fun .def_218 () Bool (and .def_100 .def_217))
(define-fun .def_219 () Bool (and .def_151 .def_218))
(define-fun .def_220 () Bool (and .def_193 .def_219))
(define-fun .def_221 () Bool (and .def_73 .def_220))
(define-fun .def_222 () Bool (and .def_110 .def_221))
(define-fun .def_223 () Bool (and .def_98 .def_222))
(define-fun .def_224 () Bool (and .def_102 .def_223))
(define-fun .def_227 () Bool (and .def_224 .def_226))
(define-fun .def_174 () Int (* (- 1) |.y{23}|))
(define-fun .def_175 () Int (+ .def_20 .def_174))
(define-fun .def_176 () Bool (= .def_175 (- 1)))
(define-fun .def_228 () Bool (and .def_176 .def_227))
(define-fun .def_229 () Bool (and .def_144 .def_228))
(define-fun .def_230 () Bool (and |.loc{9}| .def_229))
(define-fun .def_231 () Bool (and .def_66 .def_230))
(define-fun .def_232 () Bool (and .def_149 .def_231))
(define-fun .def_93 () Bool (= .def_22 |.y{24}|))
(define-fun .def_233 () Bool (and .def_93 .def_232))
(define-fun .def_234 () Bool (and .def_91 .def_233))
(define-fun .def_235 () Bool (and .def_161 .def_234))
(define-fun .def_236 () Bool (and .def_180 .def_235))
(define-fun .def_237 () Bool (and .def_164 .def_236))
(define-fun .def_345 () Bool (or .def_237 .def_344))
(define-fun .def_214 () Bool (= .def_20 |.y{26}|))
(define-fun .def_10 () Int (! |.y{13}| :next |.y{18}|))
(define-fun .def_211 () Bool (= |.y{17}| .def_10))
(define-fun .def_208 () Bool (= .def_24 |.y{27}|))
(define-fun .def_205 () Bool (= |.y{24}| 1))
(define-fun .def_195 () Bool (= .def_22 |.y{28}|))
(define-fun .def_196 () Bool (and .def_100 .def_195))
(define-fun .def_197 () Bool (and .def_151 .def_196))
(define-fun .def_198 () Bool (and .def_89 .def_197))
(define-fun .def_199 () Bool (and .def_193 .def_198))
(define-fun .def_201 () Bool (and .def_199 .def_200))
(define-fun .def_202 () Bool (and .def_73 .def_201))
(define-fun .def_203 () Bool (and .def_86 .def_202))
(define-fun .def_206 () Bool (and .def_203 .def_205))
(define-fun .def_207 () Bool (and |.loc{8}| .def_206))
(define-fun .def_209 () Bool (and .def_207 .def_208))
(define-fun .def_12 () Int (! |.y{14}| :next |.y{19}|))
(define-fun .def_51 () Bool (<= .def_22 .def_12))
(define-fun .def_210 () Bool (and .def_51 .def_209))
(define-fun .def_212 () Bool (and .def_210 .def_211))
(define-fun .def_213 () Bool (and .def_32 .def_212))
(define-fun .def_215 () Bool (and .def_213 .def_214))
(define-fun .def_216 () Bool (and .def_180 .def_215))
(define-fun .def_346 () Bool (or .def_216 .def_345))
(define-fun .def_61 () Int (* (- 1) |.x{101}|))
(define-fun .def_189 () Int (+ .def_26 .def_61))
(define-fun .def_190 () Int (+ .def_20 .def_189))
(define-fun .def_191 () Bool (= .def_190 0))
(define-fun .def_169 () Bool (not .def_168))
(define-fun .def_165 () Int (ite .def_164 .def_22 0))
(define-fun .def_166 () Bool (= |.y{24}| .def_165))
(define-fun .def_155 () (Array Int Int) (store .def_28 |.x{101}| .def_154))
(define-fun .def_156 () Bool (= |.y{27}| .def_155))
(define-fun .def_136 () Bool (= .def_30 |.y{28}|))
(define-fun .def_129 () Bool (<= .def_26 0))
(define-fun .def_69 () Bool (<= |.x{101}| 0))
(define-fun .def_70 () Bool (not .def_69))
(define-fun .def_131 () Bool (or .def_70 .def_129))
(define-fun .def_130 () Bool (not .def_129))
(define-fun .def_132 () Bool (and .def_130 .def_131))
(define-fun .def_134 () Bool (and .def_132 .def_133))
(define-fun .def_135 () Bool (and |.loc{8}| .def_134))
(define-fun .def_137 () Bool (and .def_135 .def_136))
(define-fun .def_138 () Bool (and .def_110 .def_137))
(define-fun .def_145 () Bool (and .def_138 .def_144))
(define-fun .def_150 () Bool (and .def_145 .def_149))
(define-fun .def_152 () Bool (and .def_150 .def_151))
(define-fun .def_153 () Bool (and .def_86 .def_152))
(define-fun .def_157 () Bool (and .def_153 .def_156))
(define-fun .def_162 () Bool (and .def_157 .def_161))
(define-fun .def_167 () Bool (and .def_162 .def_166))
(define-fun .def_170 () Bool (and .def_167 .def_169))
(define-fun .def_171 () Bool (and .def_34 .def_170))
(define-fun .def_173 () Bool (and .def_171 .def_172))
(define-fun .def_177 () Bool (and .def_173 .def_176))
(define-fun .def_178 () Bool (and .def_89 .def_177))
(define-fun .def_179 () Bool (and .def_91 .def_178))
(define-fun .def_181 () Bool (and .def_179 .def_180))
(define-fun .def_182 () Bool (and .def_98 .def_181))
(define-fun .def_183 () Bool (and .def_100 .def_182))
(define-fun .def_184 () Bool (and .def_102 .def_183))
(define-fun .def_192 () Bool (and .def_184 .def_191))
(define-fun .def_194 () Bool (and .def_192 .def_193))
(define-fun .def_347 () Bool (or .def_194 .def_346))
(define-fun .def_123 () Bool (<= |.y{23}| 0))
(define-fun .def_124 () Bool (not .def_123))
(define-fun .def_120 () Bool (<= |.y{21}| 0))
(define-fun .def_121 () Bool (not .def_120))
(define-fun .def_117 () Bool (<= |.y{24}| 0))
(define-fun .def_118 () Bool (not .def_117))
(define-fun .def_114 () Bool (<= |.y{18}| 0))
(define-fun .def_115 () Bool (not .def_114))
(define-fun .def_112 () Bool (= |.y{19}| 0))
(define-fun .def_108 () Bool (and |.loc{7}| .def_66))
(define-fun .def_109 () Bool (and .def_73 .def_108))
(define-fun .def_111 () Bool (and .def_109 .def_110))
(define-fun .def_113 () Bool (and .def_111 .def_112))
(define-fun .def_116 () Bool (and .def_113 .def_115))
(define-fun .def_119 () Bool (and .def_116 .def_118))
(define-fun .def_122 () Bool (and .def_119 .def_121))
(define-fun .def_125 () Bool (and .def_122 .def_124))
(define-fun .def_126 () Bool (and .def_86 .def_125))
(define-fun .def_127 () Bool (and .def_89 .def_126))
(define-fun .def_128 () Bool (and .def_91 .def_127))
(define-fun .def_348 () Bool (or .def_128 .def_347))
(define-fun .def_104 () Int (* (- 1) |.y{19}|))
(define-fun .def_105 () Int (+ .def_12 .def_104))
(define-fun .def_106 () Bool (= .def_105 (- 1)))
(define-fun .def_84 () Bool (= .def_10 |.y{18}|))
(define-fun .def_80 () Int (+ .def_16 .def_77))
(define-fun .def_81 () Int (+ .def_12 .def_80))
(define-fun .def_82 () Bool (= .def_81 0))
(define-fun .def_68 () Bool (<= .def_10 0))
(define-fun .def_75 () Bool (not .def_68))
(define-fun .def_71 () Bool (or .def_68 .def_70))
(define-fun .def_62 () Int (+ .def_12 .def_61))
(define-fun .def_63 () Int (+ .def_10 .def_62))
(define-fun .def_64 () Bool (= .def_63 0))
(define-fun .def_52 () Bool (not .def_51))
(define-fun .def_46 () (Array Int Int) (store .def_14 |.x{101}| |.x{224}|))
(define-fun .def_47 () Bool (= |.y{20}| .def_46))
(define-fun .def_40 () (Array Int Int) (store .def_18 |.x{228}| |.x{44}|))
(define-fun .def_41 () Bool (= |.y{22}| .def_40))
(define-fun .def_43 () Bool (and .def_41 .def_42))
(define-fun .def_48 () Bool (and .def_43 .def_47))
(define-fun .def_50 () Bool (and .def_48 .def_49))
(define-fun .def_53 () Bool (and .def_50 .def_52))
(define-fun .def_54 () Bool (and |.loc{7}| .def_53))
(define-fun .def_65 () Bool (and .def_54 .def_64))
(define-fun .def_67 () Bool (and .def_65 .def_66))
(define-fun .def_72 () Bool (and .def_67 .def_71))
(define-fun .def_74 () Bool (and .def_72 .def_73))
(define-fun .def_76 () Bool (and .def_74 .def_75))
(define-fun .def_83 () Bool (and .def_76 .def_82))
(define-fun .def_85 () Bool (and .def_83 .def_84))
(define-fun .def_87 () Bool (and .def_85 .def_86))
(define-fun .def_88 () Bool (and .def_32 .def_87))
(define-fun .def_90 () Bool (and .def_88 .def_89))
(define-fun .def_92 () Bool (and .def_90 .def_91))
(define-fun .def_94 () Bool (and .def_92 .def_93))
(define-fun .def_99 () Bool (and .def_94 .def_98))
(define-fun .def_101 () Bool (and .def_99 .def_100))
(define-fun .def_103 () Bool (and .def_101 .def_102))
(define-fun .def_107 () Bool (and .def_103 .def_106))
(define-fun .def_349 () Bool (! (or .def_107 .def_348) :trans true))
(define-fun .def_352 () Bool (and .def_32 .def_73))
(define-fun .def_353 () Bool (and .def_36 .def_352))
(define-fun .def_354 () Bool (! (not .def_353) :invar-property 0))
(assert true)
